10
-1 32 51 28 68 29 71 45 36 41
99 -1 10 61 16 24 64 36 14 70
86 31 -1 17 80 71 38 30 91 95
42 46 79 -1 75 69 20 12 14 74
68 93 61 98 -1 90 97 65 65 38
62 45 94 58 67 -1 42 66 88 47
18 22 56 27 70 94 -1 56 66 92
68 83 63 75 81 64 30 -1 40 85
39 38 74 99 35 64 98 16 -1 26
27 81 53 78 74 13 43 13 44 -1